/*********************************************
 * OPL 12.10.0.0 Data
 * Author: yue
 * Creation Date: Jan 9, 2022 at 7:04:03 PM
 *********************************************/

// small instance
NumCustomers = 4;
demand = [4, 7, 5, 3];

Capacity = 10;


// bigger instance
/*
NumCustomers = 18;
demand = [4, 7, 5, 3, 6, 2, 7, 5, 8, 3, 7, 4, 1, 8, 6, 4, 3, 2];

Capacity = 10;
*/


Routes = { 
<0, [1 0 0 0]>,
<1, [0 1 0 0]>,
<2, [0 0 1 0]>,
<3, [0 0 0 1]>,
};

Duals = [1.0, 1.0, 1.0, 1.0];


